14 
85 
17 
43 
18 
46 
64 
69 
84 
87 
97 
91 
61 
67 
9 
45 
21 
28 
75 
83 
16 
88 
27 
25 
58 
74 
50 
35 
44 
6 
15 
51 
62 
95 
20 
55 
31 
37 
11 
3 
89 
81 
12 
100 
68 
8 
2 
53 
54 
73 
92 
1 
56 
93 
71 
49 
48 
72 
60 
13 
66 
7 
33 
38 
22 
39 
70 
41 
30 
26 
98 
59 
10 
80 
4 
77 
5 
36 
96 
90 
8 
47 
29 
79 
19 
94 
52 
32 
99 
2 
42 
34 
23 
76 
78 
40 
63 
86 
65 
24 
57
50
9
34
25
12
3
2
